language Essence 1.3

letting class be
        function(1 --> 5, 2 --> 6, 3 --> 6, 4 --> 2, 5 --> 8, 6 --> 7, 7 --> 9, 8 --> 8, 9 --> 2, 10 --> 7, 11 --> 7,
                 12 --> 4, 13 --> 4, 14 --> 5, 15 --> 9, 16 --> 3, 17 --> 6, 18 --> 5, 19 --> 4, 20 --> 9, 21 --> 7,
                 22 --> 1, 23 --> 8, 24 --> 8, 25 --> 9, 26 --> 3, 27 --> 2)
letting deck_length be 98
letting deck_width be 25
letting length be
        function(1 --> 1, 2 --> 1, 3 --> 1, 4 --> 1, 5 --> 2, 6 --> 1, 7 --> 1, 8 --> 1, 9 --> 1, 10 --> 1, 11 --> 1,
                 12 --> 1, 13 --> 1, 14 --> 1, 15 --> 2, 16 --> 1, 17 --> 1, 18 --> 9, 19 --> 1, 20 --> 1, 21 --> 27,
                 22 --> 1, 23 --> 1, 24 --> 1, 25 --> 1, 26 --> 1, 27 --> 1)
letting n_classes be 9
letting n_containers be 27
letting separation be function()
letting width be
        function(1 --> 4, 2 --> 10, 3 --> 22, 4 --> 19, 5 --> 22, 6 --> 21, 7 --> 13, 8 --> 9, 9 --> 10, 10 --> 15,
                 11 --> 6, 12 --> 2, 13 --> 8, 14 --> 11, 15 --> 18, 16 --> 12, 17 --> 23, 18 --> 24, 19 --> 4,
                 20 --> 24, 21 --> 25, 22 --> 5, 23 --> 10, 24 --> 13, 25 --> 14, 26 --> 15, 27 --> 7)
